res/heu/pdp_100_mem_1.0/1.0_1.0/lc102.txt
Vehicle 0
0 11 13 66 14 16 67 15 68 69 12 64 65 107 

Vehicle 1
0 36 35 34 33 39 88 89 92 37 90 86 87 107 

Vehicle 2
0 3 2 5 6 55 58 56 4 57 59 1 54 107 

Vehicle 3
0 24 23 22 77 25 26 79 76 75 27 80 28 81 78 107 

Vehicle 4
0 48 46 101 45 44 98 97 47 99 100 107 

Vehicle 5
0 18 71 17 70 19 20 21 74 73 72 107 

Vehicle 6
0 7 9 10 62 63 8 61 60 107 

Vehicle 7
0 53 51 50 106 104 49 52 105 103 102 107 

Vehicle 8
0 31 30 29 83 82 32 84 85 107 

Vehicle 9
0 43 41 94 40 38 96 93 91 42 95 107 

Vehicle used: 10
Total Distance Traveled: 828.9368669428336
Total Penalty of Delay: 0.0
Time Elasped: 4946
Vehicle 0 with capacity 200
			Node 0
		Load 0.0
		Time 0.0
		Delay 0.0
			Membership 1
			Time Window [0, 1236]
			Load at node 0
			Service time at node 0
			Location (40, 50)
	Distance between 10.0
			Node 11
		Load 10.0
		Time 10.0
		Delay 0.0
			Membership 1
			Time Window [10, 73]
			Load at node 10
			Service time at node 90
			Location (30, 50)
	Distance between 5.0
			Node 13
		Load 20.0
		Time 105.0
		Delay 0.0
			Membership 1
			Time Window [65, 144]
			Load at node 10
			Service time at node 90
			Location (25, 50)
	Distance between 2.0
			Node 66
		Load 10.0
		Time 197.0
		Delay 0.0
			Membership 1
			Time Window [169, 224]
			Load at node -10
			Service time at node 90
			Location (25, 52)
	Distance between 2.0
			Node 14
		Load 20.0
		Time 289.0
		Delay 0.0
			Membership 1
			Time Window [261, 316]
			Load at node 10
			Service time at node 90
			Location (23, 52)
	Distance between 3.605551275463989
			Node 16
		Load 30.0
		Time 382.605551275464
		Delay 0.0
			Membership 1
			Time Window [358, 405]
			Load at node 10
			Service time at node 90
			Location (20, 50)
	Distance between 5.0
			Node 67
		Load 20.0
		Time 477.605551275464
		Delay 0.0
			Membership 1
			Time Window [449, 504]
			Load at node -10
			Service time at node 90
			Location (20, 55)
	Distance between 3.0
			Node 15
		Load 40.0
		Time 570.605551275464
		Delay 0.0
			Membership 1
			Time Window [546, 593]
			Load at node 20
			Service time at node 0
			Location (23, 55)
	Distance between 0.0
			Node 68
		Load 20.0
		Time 570.605551275464
		Delay 0.0
			Membership 1
			Time Window [546, 593]
			Load at node -20
			Service time at node 90
			Location (23, 55)
	Distance between 2.0
			Node 69
		Load 10.0
		Time 662.605551275464
		Delay 0.0
			Membership 1
			Time Window [0, 1130]
			Load at node -10
			Service time at node 90
			Location (25, 55)
	Distance between 3.0
			Node 12
		Load 20.0
		Time 755.605551275464
		Delay 0.0
			Membership 1
			Time Window [732, 777]
			Load at node 10
			Service time at node 90
			Location (28, 55)
	Distance between 3.0
			Node 64
		Load 10.0
		Time 848.605551275464
		Delay 0.0
			Membership 1
			Time Window [812, 883]
			Load at node -10
			Service time at node 90
			Location (28, 52)
	Distance between 2.0
			Node 65
		Load 0.0
		Time 940.605551275464
		Delay 0.0
			Membership 1
			Time Window [0, 1135]
			Load at node -10
			Service time at node 90
			Location (30, 52)
	Distance between 10.198039027185569
			Node 107
		Load 0.0
		Time 1040.8035903026496
		Delay 0.0
			Membership 1
			Time Window [0, 1236]
			Load at node 0
			Service time at node 0
			Location (40, 50)

Vehicle 1 with capacity 200
			Node 0
		Load 0.0
		Time 0.0
		Delay 0.0
			Membership 1
			Time Window [0, 1236]
			Load at node 0
			Service time at node 0
			Location (40, 50)
	Distance between 12.206555615733702
			Node 36
		Load 10.0
		Time 12.206555615733702
		Delay 0.0
			Membership 1
			Time Window [12, 77]
			Load at node 10
			Service time at node 90
			Location (47, 40)
	Distance between 1.0
			Node 35
		Load 20.0
		Time 103.2065556157337
		Delay 0.0
			Membership 1
			Time Window [76, 129]
			Load at node 10
			Service time at node 90
			Location (48, 40)
	Distance between 2.0
			Node 34
		Load 70.0
		Time 195.2065556157337
		Delay 0.0
			Membership 1
			Time Window [171, 218]
			Load at node 50
			Service time at node 90
			Location (50, 40)
	Distance between 5.0
			Node 33
		Load 90.0
		Time 290.2065556157337
		Delay 0.0
			Membership 1
			Time Window [262, 317]
			Load at node 20
			Service time at node 90
			Location (50, 35)
	Distance between 3.0
			Node 39
		Load 140.0
		Time 383.2065556157337
		Delay 0.0
			Membership 1
			Time Window [353, 412]
			Load at node 50
			Service time at node 90
			Location (53, 35)
	Distance between 5.0
			Node 88
		Load 130.0
		Time 478.2065556157337
		Delay 0.0
			Membership 1
			Time Window [0, 1122]
			Load at node -10
			Service time at node 90
			Location (53, 30)
	Distance between 3.0
			Node 89
		Load 120.0
		Time 571.2065556157337
		Delay 0.0
			Membership 1
			Time Window [531, 610]
			Load at node -10
			Service time at node 90
			Location (50, 30)
	Distance between 2.0
			Node 92
		Load 70.0
		Time 663.2065556157337
		Delay 0.0
			Membership 1
			Time Window [632, 693]
			Load at node -50
			Service time at node 90
			Location (48, 30)
	Distance between 3.0
			Node 37
		Load 80.0
		Time 756.2065556157337
		Delay 0.0
			Membership 1
			Time Window [734, 777]
			Load at node 10
			Service time at node 0
			Location (45, 30)
	Distance between 0.0
			Node 90
		Load 70.0
		Time 756.2065556157337
		Delay 0.0
			Membership 1
			Time Window [734, 777]
			Load at node -10
			Service time at node 90
			Location (45, 30)
	Distance between 5.385164807134504
			Node 86
		Load 50.0
		Time 851.5917204228682
		Delay 0.0
			Membership 1
			Time Window [826, 875]
			Load at node -20
			Service time at node 90
			Location (47, 35)
	Distance between 2.0
			Node 87
		Load 0.0
		Time 943.5917204228682
		Delay 0.0
			Membership 1
			Time Window [916, 969]
			Load at node -50
			Service time at node 90
			Location (45, 35)
	Distance between 15.811388300841896
			Node 107
		Load 0.0
		Time 1049.4031087237101
		Delay 0.0
			Membership 1
			Time Window [0, 1236]
			Load at node 0
			Service time at node 0
			Location (40, 50)

Vehicle 2 with capacity 200
			Node 0
		Load 0.0
		Time 0.0
		Delay 0.0
			Membership 1
			Time Window [0, 1236]
			Load at node 0
			Service time at node 0
			Location (40, 50)
	Distance between 15.132745950421556
			Node 3
		Load 10.0
		Time 15.132745950421556
		Delay 0.0
			Membership 1
			Time Window [0, 1130]
			Load at node 10
			Service time at node 90
			Location (42, 65)
	Distance between 1.0
			Node 2
		Load 20.0
		Time 106.13274595042155
		Delay 0.0
			Membership 1
			Time Window [0, 1129]
			Load at node 10
			Service time at node 90
			Location (42, 66)
	Distance between 2.0
			Node 5
		Load 40.0
		Time 198.13274595042157
		Delay 0.0
			Membership 1
			Time Window [0, 1130]
			Load at node 20
			Service time at node 90
			Location (40, 66)
	Distance between 2.8284271247461903
			Node 6
		Load 60.0
		Time 290.9611730751677
		Delay 0.0
			Membership 1
			Time Window [255, 324]
			Load at node 20
			Service time at node 90
			Location (38, 68)
	Distance between 3.605551275463989
			Node 55
		Load 50.0
		Time 384.5667243506317
		Delay 0.0
			Membership 1
			Time Window [357, 410]
			Load at node -10
			Service time at node 90
			Location (35, 66)
	Distance between 3.0
			Node 58
		Load 30.0
		Time 477.5667243506317
		Delay 0.0
			Membership 1
			Time Window [448, 505]
			Load at node -20
			Service time at node 90
			Location (35, 69)
	Distance between 3.1622776601683795
			Node 56
		Load 20.0
		Time 570.7290020108001
		Delay 0.0
			Membership 1
			Time Window [534, 605]
			Load at node -10
			Service time at node 90
			Location (38, 70)
	Distance between 2.23606797749979
			Node 4
		Load 40.0
		Time 662.9650699882999
		Delay 0.0
			Membership 1
			Time Window [621, 702]
			Load at node 20
			Service time at node 90
			Location (40, 69)
	Distance between 2.23606797749979
			Node 57
		Load 20.0
		Time 755.2011379657997
		Delay 0.0
			Membership 1
			Time Window [727, 782]
			Load at node -20
			Service time at node 90
			Location (42, 68)
	Distance between 3.605551275463989
			Node 59
		Load 0.0
		Time 848.8066892412637
		Delay 0.0
			Membership 1
			Time Window [0, 1125]
			Load at node -20
			Service time at node 90
			Location (45, 70)
	Distance between 2.0
			Node 1
		Load 10.0
		Time 940.8066892412637
		Delay 0.0
			Membership 1
			Time Window [0, 1127]
			Load at node 10
			Service time at node 90
			Location (45, 68)
	Distance between 3.0
			Node 54
		Load 0.0
		Time 1033.8066892412637
		Delay 0.0
			Membership 1
			Time Window [0, 1130]
			Load at node -10
			Service time at node 90
			Location (45, 65)
	Distance between 15.811388300841896
			Node 107
		Load 0.0
		Time 1139.6180775421055
		Delay 0.0
			Membership 1
			Time Window [0, 1236]
			Load at node 0
			Service time at node 0
			Location (40, 50)

Vehicle 3 with capacity 200
			Node 0
		Load 0.0
		Time 0.0
		Delay 0.0
			Membership 1
			Time Window [0, 1236]
			Load at node 0
			Service time at node 0
			Location (40, 50)
	Distance between 16.55294535724685
			Node 24
		Load 10.0
		Time 16.55294535724685
		Delay 0.0
			Membership 1
			Time Window [16, 80]
			Load at node 10
			Service time at node 90
			Location (33, 35)
	Distance between 3.0
			Node 23
		Load 30.0
		Time 109.55294535724684
		Delay 0.0
			Membership 1
			Time Window [68, 149]
			Load at node 20
			Service time at node 90
			Location (33, 32)
	Distance between 2.0
			Node 22
		Load 40.0
		Time 201.55294535724684
		Delay 0.0
			Membership 1
			Time Window [166, 235]
			Load at node 10
			Service time at node 90
			Location (35, 32)
	Distance between 2.0
			Node 77
		Load 30.0
		Time 293.5529453572468
		Delay 0.0
			Membership 1
			Time Window [264, 321]
			Load at node -10
			Service time at node 90
			Location (35, 30)
	Distance between 3.0
			Node 25
		Load 40.0
		Time 386.5529453572468
		Delay 0.0
			Membership 1
			Time Window [359, 412]
			Load at node 10
			Service time at node 90
			Location (32, 30)
	Distance between 2.8284271247461903
			Node 26
		Load 70.0
		Time 479.381372481993
		Delay 0.0
			Membership 1
			Time Window [448, 509]
			Load at node 30
			Service time at node 90
			Location (30, 32)
	Distance between 2.0
			Node 79
		Load 40.0
		Time 571.381372481993
		Delay 0.0
			Membership 1
			Time Window [541, 600]
			Load at node -30
			Service time at node 90
			Location (30, 30)
	Distance between 2.0
			Node 76
		Load 20.0
		Time 663.381372481993
		Delay 0.0
			Membership 1
			Time Window [0, 1122]
			Load at node -20
			Service time at node 90
			Location (28, 30)
	Distance between 3.0
			Node 75
		Load 10.0
		Time 756.381372481993
		Delay 0.0
			Membership 1
			Time Window [725, 786]
			Load at node -10
			Service time at node 90
			Location (25, 30)
	Distance between 2.23606797749979
			Node 27
		Load 20.0
		Time 848.6174404594929
		Delay 0.0
			Membership 1
			Time Window [0, 1123]
			Load at node 10
			Service time at node 0
			Location (26, 32)
	Distance between 0.0
			Node 80
		Load 10.0
		Time 848.6174404594929
		Delay 0.0
			Membership 1
			Time Window [0, 1123]
			Load at node -10
			Service time at node 90
			Location (26, 32)
	Distance between 3.1622776601683795
			Node 28
		Load 20.0
		Time 941.7797181196612
		Delay 0.0
			Membership 1
			Time Window [0, 1124]
			Load at node 10
			Service time at node 90
			Location (25, 35)
	Distance between 3.0
			Node 81
		Load 10.0
		Time 1034.779718119661
		Delay 0.0
			Membership 1
			Time Window [1001, 1066]
			Load at node -10
			Service time at node 90
			Location (28, 35)
	Distance between 2.0
			Node 78
		Load 0.0
		Time 1126.779718119661
		Delay 0.0
			Membership 1
			Time Window [1054, 1127]
			Load at node -10
			Service time at node 90
			Location (30, 35)
	Distance between 18.027756377319946
			Node 107
		Load 0.0
		Time 1234.807474496981
		Delay 0.0
			Membership 1
			Time Window [0, 1236]
			Load at node 0
			Service time at node 0
			Location (40, 50)

Vehicle 4 with capacity 200
			Node 0
		Load 0.0
		Time 0.0
		Delay 0.0
			Membership 1
			Time Window [0, 1236]
			Load at node 0
			Service time at node 0
			Location (40, 50)
	Distance between 20.615528128088304
			Node 48
		Load 10.0
		Time 20.615528128088304
		Delay 0.0
			Membership 1
			Time Window [20, 84]
			Load at node 10
			Service time at node 90
			Location (60, 55)
	Distance between 5.0
			Node 46
		Load 30.0
		Time 115.6155281280883
		Delay 0.0
			Membership 1
			Time Window [85, 144]
			Load at node 20
			Service time at node 90
			Location (65, 55)
	Distance between 1.0
			Node 101
		Load 20.0
		Time 206.6155281280883
		Delay 0.0
			Membership 1
			Time Window [173, 238]
			Load at node -10
			Service time at node 90
			Location (66, 55)
	Distance between 6.0
			Node 45
		Load 30.0
		Time 302.6155281280883
		Delay 0.0
			Membership 1
			Time Window [0, 1113]
			Load at node 10
			Service time at node 90
			Location (72, 55)
	Distance between 3.0
			Node 44
		Load 50.0
		Time 395.6155281280883
		Delay 0.0
			Membership 1
			Time Window [0, 1110]
			Load at node 20
			Service time at node 90
			Location (75, 55)
	Distance between 5.830951894845301
			Node 98
		Load 40.0
		Time 491.44648002293354
		Delay 0.0
			Membership 1
			Time Window [458, 523]
			Load at node -10
			Service time at node 90
			Location (70, 58)
	Distance between 2.8284271247461903
			Node 97
		Load 20.0
		Time 584.2749071476798
		Delay 0.0
			Membership 1
			Time Window [0, 1116]
			Load at node -20
			Service time at node 90
			Location (68, 60)
	Distance between 3.0
			Node 47
		Load 50.0
		Time 677.2749071476798
		Delay 0.0
			Membership 1
			Time Window [645, 708]
			Load at node 30
			Service time at node 90
			Location (65, 60)
	Distance between 2.8284271247461903
			Node 99
		Load 30.0
		Time 770.103334272426
		Delay 0.0
			Membership 1
			Time Window [737, 802]
			Load at node -20
			Service time at node 90
			Location (63, 58)
	Distance between 3.605551275463989
			Node 100
		Load 0.0
		Time 863.70888554789
		Delay 0.0
			Membership 1
			Time Window [0, 1123]
			Load at node -30
			Service time at node 90
			Location (60, 60)
	Distance between 22.360679774997898
			Node 107
		Load 0.0
		Time 976.0695653228879
		Delay 0.0
			Membership 1
			Time Window [0, 1236]
			Load at node 0
			Service time at node 0
			Location (40, 50)

Vehicle 5 with capacity 200
			Node 0
		Load 0.0
		Time 0.0
		Delay 0.0
			Membership 1
			Time Window [0, 1236]
			Load at node 0
			Service time at node 0
			Location (40, 50)
	Distance between 31.622776601683793
			Node 18
		Load 30.0
		Time 31.622776601683793
		Delay 0.0
			Membership 1
			Time Window [31, 100]
			Load at node 30
			Service time at node 90
			Location (10, 40)
	Distance between 2.0
			Node 71
		Load 0.0
		Time 123.6227766016838
		Delay 0.0
			Membership 1
			Time Window [87, 158]
			Load at node -30
			Service time at node 90
			Location (8, 40)
	Distance between 5.385164807134504
			Node 17
		Load 20.0
		Time 219.00794140881828
		Delay 0.0
			Membership 1
			Time Window [0, 1112]
			Load at node 20
			Service time at node 90
			Location (10, 35)
	Distance between 5.0
			Node 70
		Load 0.0
		Time 314.0079414088183
		Delay 0.0
			Membership 1
			Time Window [283, 344]
			Load at node -20
			Service time at node 90
			Location (5, 35)
	Distance between 5.830951894845301
			Node 19
		Load 20.0
		Time 409.83889330366355
		Delay 0.0
			Membership 1
			Time Window [0, 1106]
			Load at node 20
			Service time at node 90
			Location (2, 40)
	Distance between 2.0
			Node 20
		Load 50.0
		Time 501.83889330366355
		Delay 0.0
			Membership 1
			Time Window [479, 522]
			Load at node 30
			Service time at node 90
			Location (0, 40)
	Distance between 5.0
			Node 21
		Load 70.0
		Time 596.8388933036636
		Delay 0.0
			Membership 1
			Time Window [567, 624]
			Load at node 20
			Service time at node 0
			Location (0, 45)
	Distance between 0.0
			Node 74
		Load 50.0
		Time 596.8388933036636
		Delay 0.0
			Membership 1
			Time Window [567, 624]
			Load at node -20
			Service time at node 90
			Location (0, 45)
	Distance between 5.0
			Node 73
		Load 20.0
		Time 691.8388933036636
		Delay 0.0
			Membership 1
			Time Window [665, 716]
			Load at node -30
			Service time at node 90
			Location (5, 45)
	Distance between 3.0
			Node 72
		Load 0.0
		Time 784.8388933036636
		Delay 0.0
			Membership 1
			Time Window [0, 1113]
			Load at node -20
			Service time at node 90
			Location (8, 45)
	Distance between 32.38826948140329
			Node 107
		Load 0.0
		Time 907.2271627850669
		Delay 0.0
			Membership 1
			Time Window [0, 1236]
			Load at node 0
			Service time at node 0
			Location (40, 50)

Vehicle 6 with capacity 200
			Node 0
		Load 0.0
		Time 0.0
		Delay 0.0
			Membership 1
			Time Window [0, 1236]
			Load at node 0
			Service time at node 0
			Location (40, 50)
	Distance between 30.805843601498726
			Node 7
		Load 30.0
		Time 30.805843601498726
		Delay 0.0
			Membership 1
			Time Window [30, 92]
			Load at node 30
			Service time at node 90
			Location (22, 75)
	Distance between 4.0
			Node 9
		Load 50.0
		Time 124.80584360149872
		Delay 0.0
			Membership 1
			Time Window [99, 148]
			Load at node 20
			Service time at node 90
			Location (18, 75)
	Distance between 3.0
			Node 10
		Load 70.0
		Time 217.80584360149874
		Delay 0.0
			Membership 1
			Time Window [179, 254]
			Load at node 20
			Service time at node 90
			Location (15, 75)
	Distance between 5.0
			Node 62
		Load 50.0
		Time 312.80584360149874
		Delay 0.0
			Membership 1
			Time Window [278, 345]
			Load at node -20
			Service time at node 90
			Location (15, 80)
	Distance between 5.0
			Node 63
		Load 30.0
		Time 407.80584360149874
		Delay 0.0
			Membership 1
			Time Window [384, 429]
			Load at node -20
			Service time at node 90
			Location (20, 80)
	Distance between 5.0
			Node 8
		Load 70.0
		Time 502.80584360149874
		Delay 0.0
			Membership 1
			Time Window [475, 528]
			Load at node 40
			Service time at node 90
			Location (20, 85)
	Distance between 2.0
			Node 61
		Load 30.0
		Time 594.8058436014987
		Delay 0.0
			Membership 1
			Time Window [567, 620]
			Load at node -40
			Service time at node 90
			Location (22, 85)
	Distance between 3.0
			Node 60
		Load 0.0
		Time 687.8058436014987
		Delay 0.0
			Membership 1
			Time Window [0, 1107]
			Load at node -30
			Service time at node 90
			Location (25, 85)
	Distance between 38.07886552931954
			Node 107
		Load 0.0
		Time 815.8847091308182
		Delay 0.0
			Membership 1
			Time Window [0, 1236]
			Load at node 0
			Service time at node 0
			Location (40, 50)

Vehicle 7 with capacity 200
			Node 0
		Load 0.0
		Time 0.0
		Delay 0.0
			Membership 1
			Time Window [0, 1236]
			Load at node 0
			Service time at node 0
			Location (40, 50)
	Distance between 30.805843601498726
			Node 53
		Load 20.0
		Time 30.805843601498726
		Delay 0.0
			Membership 1
			Time Window [0, 1115]
			Load at node 20
			Service time at node 90
			Location (58, 75)
	Distance between 5.385164807134504
			Node 51
		Load 30.0
		Time 126.19100840863322
		Delay 0.0
			Membership 1
			Time Window [0, 1109]
			Load at node 10
			Service time at node 90
			Location (60, 80)
	Distance between 2.0
			Node 50
		Load 60.0
		Time 218.19100840863322
		Delay 0.0
			Membership 1
			Time Window [0, 1108]
			Load at node 30
			Service time at node 90
			Location (62, 80)
	Distance between 3.605551275463989
			Node 106
		Load 40.0
		Time 311.79655968409725
		Delay 0.0
			Membership 1
			Time Window [0, 1105]
			Load at node -20
			Service time at node 90
			Location (65, 82)
	Distance between 3.605551275463989
			Node 104
		Load 30.0
		Time 405.40211095956124
		Delay 0.0
			Membership 1
			Time Window [368, 441]
			Load at node -10
			Service time at node 90
			Location (67, 85)
	Distance between 2.0
			Node 49
		Load 70.0
		Time 497.40211095956124
		Delay 0.0
			Membership 1
			Time Window [475, 518]
			Load at node 40
			Service time at node 90
			Location (65, 85)
	Distance between 5.0
			Node 52
		Load 100.0
		Time 592.4021109595612
		Delay 0.0
			Membership 1
			Time Window [561, 622]
			Load at node 30
			Service time at node 0
			Location (60, 85)
	Distance between 0.0
			Node 105
		Load 70.0
		Time 592.4021109595612
		Delay 0.0
			Membership 1
			Time Window [561, 622]
			Load at node -30
			Service time at node 90
			Location (60, 85)
	Distance between 5.0
			Node 103
		Load 40.0
		Time 687.4021109595612
		Delay 0.0
			Membership 1
			Time Window [647, 726]
			Load at node -30
			Service time at node 90
			Location (55, 85)
	Distance between 5.0
			Node 102
		Load 0.0
		Time 782.4021109595612
		Delay 0.0
			Membership 1
			Time Window [743, 820]
			Load at node -40
			Service time at node 90
			Location (55, 80)
	Distance between 33.54101966249684
			Node 107
		Load 0.0
		Time 905.9431306220581
		Delay 0.0
			Membership 1
			Time Window [0, 1236]
			Load at node 0
			Service time at node 0
			Location (40, 50)

Vehicle 8 with capacity 200
			Node 0
		Load 0.0
		Time 0.0
		Delay 0.0
			Membership 1
			Time Window [0, 1236]
			Load at node 0
			Service time at node 0
			Location (40, 50)
	Distance between 35.0
			Node 31
		Load 40.0
		Time 35.0
		Delay 0.0
			Membership 1
			Time Window [35, 87]
			Load at node 40
			Service time at node 90
			Location (40, 15)
	Distance between 2.0
			Node 30
		Load 50.0
		Time 127.0
		Delay 0.0
			Membership 1
			Time Window [95, 158]
			Load at node 10
			Service time at node 90
			Location (42, 15)
	Distance between 5.0
			Node 29
		Load 90.0
		Time 222.0
		Delay 0.0
			Membership 1
			Time Window [186, 257]
			Load at node 40
			Service time at node 90
			Location (42, 10)
	Distance between 5.385164807134504
			Node 83
		Load 80.0
		Time 317.3851648071345
		Delay 0.0
			Membership 1
			Time Window [286, 347]
			Load at node -10
			Service time at node 90
			Location (44, 5)
	Distance between 4.0
			Node 82
		Load 40.0
		Time 411.3851648071345
		Delay 0.0
			Membership 1
			Time Window [385, 436]
			Load at node -40
			Service time at node 90
			Location (40, 5)
	Distance between 2.0
			Node 32
		Load 70.0
		Time 503.3851648071345
		Delay 0.0
			Membership 1
			Time Window [471, 534]
			Load at node 30
			Service time at node 90
			Location (38, 5)
	Distance between 3.0
			Node 84
		Load 30.0
		Time 596.3851648071345
		Delay 0.0
			Membership 1
			Time Window [562, 629]
			Load at node -40
			Service time at node 90
			Location (35, 5)
	Distance between 10.44030650891055
			Node 85
		Load 0.0
		Time 696.8254713160451
		Delay 0.0
			Membership 1
			Time Window [0, 1110]
			Load at node -30
			Service time at node 90
			Location (38, 15)
	Distance between 35.05709628591621
			Node 107
		Load 0.0
		Time 821.8825676019612
		Delay 0.0
			Membership 1
			Time Window [0, 1236]
			Load at node 0
			Service time at node 0
			Location (40, 50)

Vehicle 9 with capacity 200
			Node 0
		Load 0.0
		Time 0.0
		Delay 0.0
			Membership 1
			Time Window [0, 1236]
			Load at node 0
			Service time at node 0
			Location (40, 50)
	Distance between 47.43416490252569
			Node 43
		Load 30.0
		Time 47.43416490252569
		Delay 0.0
			Membership 1
			Time Window [47, 124]
			Load at node 30
			Service time at node 90
			Location (85, 35)
	Distance between 3.0
			Node 41
		Load 50.0
		Time 140.43416490252568
		Delay 0.0
			Membership 1
			Time Window [109, 170]
			Load at node 20
			Service time at node 0
			Location (88, 35)
	Distance between 0.0
			Node 94
		Load 30.0
		Time 140.43416490252568
		Delay 0.0
			Membership 1
			Time Window [109, 170]
			Load at node -20
			Service time at node 90
			Location (88, 35)
	Distance between 2.0
			Node 40
		Load 40.0
		Time 232.43416490252568
		Delay 0.0
			Membership 1
			Time Window [203, 260]
			Load at node 10
			Service time at node 90
			Location (90, 35)
	Distance between 5.0
			Node 38
		Load 60.0
		Time 327.4341649025257
		Delay 0.0
			Membership 1
			Time Window [293, 360]
			Load at node 20
			Service time at node 90
			Location (95, 35)
	Distance between 5.0
			Node 96
		Load 30.0
		Time 422.4341649025257
		Delay 0.0
			Membership 1
			Time Window [387, 456]
			Load at node -30
			Service time at node 90
			Location (95, 30)
	Distance between 3.0
			Node 93
		Load 20.0
		Time 515.4341649025257
		Delay 0.0
			Membership 1
			Time Window [478, 551]
			Load at node -10
			Service time at node 90
			Location (92, 30)
	Distance between 4.0
			Node 91
		Load 0.0
		Time 609.4341649025257
		Delay 0.0
			Membership 1
			Time Window [574, 643]
			Load at node -20
			Service time at node 90
			Location (88, 30)
	Distance between 1.0
			Node 42
		Load 10.0
		Time 700.4341649025257
		Delay 0.0
			Membership 1
			Time Window [668, 731]
			Load at node 10
			Service time at node 90
			Location (87, 30)
	Distance between 5.385164807134504
			Node 95
		Load 0.0
		Time 795.8193297096602
		Delay 0.0
			Membership 1
			Time Window [769, 820]
			Load at node -10
			Service time at node 90
			Location (85, 25)
	Distance between 51.478150704935004
			Node 107
		Load 0.0
		Time 937.2974804145952
		Delay 0.0
			Membership 1
			Time Window [0, 1236]
			Load at node 0
			Service time at node 0
			Location (40, 50)

